1
1000
48
256 1000000
257 1000000
258 2000000
260 1000000
406 1000000
262 1000000
264 2000000
266 1000000
267 1000000
268 1000000
269 1000000
270 1000000
403 1000000
278 2000000
279 2000000
281 1000000
411 1000000
285 2000000
290 1000000
292 1000000
294 2000000
425 1000000
428 1000000
302 1000000
306 1000000
436 1000000
309 1000000
394 1000000
437 1000000
453 1000000
455 1000000
459 2000000
333 1000000
467 1000000
469 1000000
342 1000000
478 1000000
355 1000000
422 1000000
489 1000000
492 1000000
495 1000000
496 1000000
250 2000000
251 3000000
253 1000000
254 1000000
255 3000000
